(declare-fun I0_12 () Int)
(declare-fun I0_2 () Int)
(declare-fun I0_6 () Int)
(declare-fun I1_12 () Int)
(declare-fun I2_12 () Int)
(declare-fun PCTEMP_LHS_1 () Int)
(declare-fun PCTEMP_LHS_2 () Int)
(declare-fun PCTEMP_LHS_3 () String)
(declare-fun T0_2 () String)
(declare-fun T0_6 () String)
(declare-fun T1_12 () String)
(declare-fun T1_2 () String)
(declare-fun T1_6 () String)
(declare-fun T2_12 () String)
(declare-fun T2_2 () String)
(declare-fun T2_6 () String)
(declare-fun T3_12 () String)
(declare-fun T3_2 () String)
(declare-fun T3_6 () String)
(declare-fun T4_2 () String)
(declare-fun T4_6 () String)
(declare-fun T5_2 () String)
(declare-fun T5_6 () String)
(declare-fun T_2 () Bool)
(declare-fun T_3 () Int)
(declare-fun T_5 () Bool)
(declare-fun T_6 () Int)
(declare-fun T_7 () Int)
(declare-fun T_9 () Bool)
(declare-fun T_SELECT_1 () Bool)
(declare-fun T_SELECT_2 () Bool)
(declare-fun T_a () Bool)
(declare-fun var_0xINPUT_15284 () String)
(assert (= T_SELECT_1 (not (= PCTEMP_LHS_1 (- 1)))))
(assert (ite T_SELECT_1 (and (= PCTEMP_LHS_1 (+ I0_2 0)) (= var_0xINPUT_15284 (Concat T0_2 T1_2)) (= I0_2 (Length T4_2)) (= 0 (Length T0_2)) (= T1_2 (Concat T2_2 T3_2)) (= T2_2 (Concat T4_2 T5_2)) (= T5_2 "GoogleAdServingTest=") (not (= T4_2 "GoogleAdServingTest="))) (and (= PCTEMP_LHS_1 (- 1)) (= var_0xINPUT_15284 (Concat T0_2 T1_2)) (= 0 (Length T0_2)) (not (= T1_2 "GoogleAdServingTest=")))))
(assert (= T_2 (not (= PCTEMP_LHS_1 (- 1)))))
(assert T_2)
(assert (= T_3 (+ PCTEMP_LHS_1 20)))
(assert (= T_SELECT_2 (not (= PCTEMP_LHS_2 (- 1)))))
(assert (ite T_SELECT_2 (and (= PCTEMP_LHS_2 (+ I0_6 T_3)) (= var_0xINPUT_15284 (Concat T0_6 T1_6)) (= I0_6 (Length T4_6)) (= T_3 (Length T0_6)) (= T1_6 (Concat T2_6 T3_6)) (= T2_6 (Concat T4_6 T5_6)) (= T5_6 ";") (not (= T4_6 ";"))) (and (= PCTEMP_LHS_2 (- 1)) (= var_0xINPUT_15284 (Concat T0_6 T1_6)) (= T_3 (Length T0_6)) (not (= T1_6 ";")))))
(assert (= T_5 (= PCTEMP_LHS_2 (- 1))))
(assert T_5)
(assert (= T_6 (+ PCTEMP_LHS_1 20)))
(assert (= T_7 (Length var_0xINPUT_15284)))
(assert (= I0_12 (- T_7 T_6)))
(assert (>= T_6 0))
(assert (>= T_7 T_6))
(assert (<= T_7 I1_12))
(assert (= I2_12 I1_12))
(assert (= I0_12 (Length PCTEMP_LHS_3)))
(assert (= var_0xINPUT_15284 (Concat T1_12 T2_12)))
(assert (= T2_12 (Concat PCTEMP_LHS_3 T3_12)))
(assert (= T_6 (Length T1_12)))
(assert (= I1_12 (Length var_0xINPUT_15284)))
(assert (= T_9 (= PCTEMP_LHS_3 "Good")))
(assert (= T_a (not T_9)))
(assert T_a)
(check-sat)
